; benchmark generated from python API
(set-info :status unknown)
(declare-fun L_3 () Real)
(declare-fun S_5 () Real)
(declare-fun A_5 () Real)
(declare-fun L_1 () Real)
(declare-fun S_1 () Real)
(declare-fun A_1 () Real)
(declare-fun L_0 () Real)
(declare-fun S_0 () Real)
(declare-fun A_0 () Real)
(declare-fun L_2 () Real)
(declare-fun A_2 () Real)
(declare-fun A_3 () Real)
(declare-fun S_4 () Real)
(declare-fun A_4 () Real)
(declare-fun S_2 () Real)
(declare-fun S_3 () Real)
(assert
 (let (($x39 (>= L_0 0.0)))
 (let (($x182669 (<= (+ (* (- 1.0) A_3) (* (- 1.0) A_2) S_5 L_3 S_0 L_2) (- 5.0))))
 (let ((?x1112 (* 2.0 L_2)))
 (let ((?x1111 (* (- 2.0) L_1)))
 (let ((?x1110 (* 2.0 A_1)))
 (let ((?x1109 (* (- 2.0) A_2)))
 (let ((?x476 (* (- 1.0) A_3)))
 (let ((?x2548 (+ ?x476 ?x1109 ?x1110 S_5 L_3 ?x1111 ?x1112)))
 (let (($x66 (= L_2 L_1)))
 (let ((?x484 (* (- 1.0) A_1)))
 (let ((?x19634 (+ ?x476 ?x484 L_3 S_4 S_0 L_1)))
 (let (($x176575 (<= 0.0 ?x19634)))
 (let ((?x3996 (* 2.0 L_3)))
 (let ((?x480 (* (- 1.0) A_2)))
 (let ((?x4027 (* (- 2.0) A_3)))
 (let ((?x468 (* (- 1.0) A_5)))
 (let ((?x590 (* (- 1.0) L_2)))
 (let ((?x795 (+ L_1 ?x590)))
 (let (($x366 (<= 0.0 ?x795)))
 (let (($x376110 (or $x366 (<= (+ A_4 ?x468 ?x4027 ?x480 S_5 ?x3996 S_4 S_0 L_2) 0.0) $x176575)))
 (let ((?x472 (* (- 1.0) A_4)))
 (let ((?x37146 (+ ?x472 ?x476 A_2 S_5 ?x3996 ?x590)))
 (let (($x171292 (<= ?x37146 (- 5.0))))
 (let ((?x603 (* (- 1.0) L_1)))
 (let ((?x4166 (* 3.0 L_3)))
 (let ((?x4425 (* 2.0 S_5)))
 (let ((?x4073 (* (- 2.0) A_4)))
 (let ((?x43131 (+ ?x4073 ?x476 A_1 ?x4425 ?x4166 ?x603)))
 (let (($x170185 (<= (+ (* (- 3.0) A_4) ?x476 (* 3.0 S_5) (* 4.0 L_3) S_0) (- 5.0))))
 (let (($x76 (= L_3 L_2)))
 (let (($x65634 (<= (+ A_4 ?x468 ?x476 ?x480 A_1 S_5 L_3 ?x603 L_2) 0.0)))
 (let ((?x9833 (* (/ 1.0 2.0) S_0)))
 (let ((?x6381 (* (/ 1.0 2.0) S_2)))
 (let (($x376481 (or $x66 (<= (+ A_4 ?x468 ?x476 ?x480 S_5 L_3 ?x6381 ?x9833 L_2) 0.0) $x65634)))
 (let ((?x503 (* (- 1.0) S_4)))
 (let ((?x4068 (* (- 2.0) A_5)))
 (let ((?x4067 (* 2.0 A_4)))
 (let (($x72864 (<= (+ ?x4067 ?x4068 ?x4027 A_1 ?x603 ?x4425 ?x503 ?x3996) 0.0)))
 (let ((?x6282 (* 3.0 S_5)))
 (let ((?x4139 (* (- 3.0) A_3)))
 (let ((?x5891 (* (- 3.0) A_5)))
 (let ((?x17883 (* 3.0 A_4)))
 (let (($x17806 (<= (+ A_4 ?x468 ?x476 A_2 S_5 ?x590 ?x503 L_3) 0.0)))
 (let (($x374130 (or $x76 $x17806 (<= (+ ?x17883 ?x5891 ?x4139 ?x6282 ?x503 S_0 ?x4166) 0.0) $x72864)))
 (let (($x371474 (or $x66 (<= (+ ?x476 ?x480 A_1 L_3 S_4 ?x603 L_2) (- 5.0)) (<= (+ ?x4027 ?x480 ?x3996 (* 2.0 S_4) S_0 L_2) (- 5.0)))))
 (let ((?x4601 (* (/ 2.0 3.0) S_0)))
 (let ((?x147393 (+ A_4 ?x468 (* (- (/ 2.0 3.0)) A_3) ?x480 S_5 (* (/ 2.0 3.0) L_3) ?x4601 L_2)))
 (let (($x172677 (<= (+ A_4 ?x468 (* (- 3.0) A_2) ?x1110 ?x1111 S_5 (* 3.0 L_2)) (- 10.0))))
 (let ((?x3992 (* (/ 1.0 2.0) L_3)))
 (let ((?x5875 (* (/ 1.0 2.0) S_5)))
 (let ((?x4016 (* (- (/ 1.0 2.0)) A_3)))
 (let (($x106952 (<= (+ A_4 ?x468 ?x480 ?x1110 ?x1111 S_5 (* (- 2.0) S_3) L_2) 0.0)))
 (let (($x373826 (or $x66 $x106952 (<= (+ A_4 ?x468 ?x480 S_5 (* (- 1.0) S_3) S_0 L_2) 0.0))))
 (let (($x175727 (<= (+ (* (/ 1.0 3.0) A_1) (* (- (/ 1.0 3.0)) L_1) (* (- (/ 1.0 3.0)) S_5)) (- 5.0))))
 (let ((?x1140 (* 4.0 L_2)))
 (let ((?x1125 (* (- 3.0) L_1)))
 (let ((?x1124 (* 3.0 A_1)))
 (let ((?x1136 (* (- 4.0) A_2)))
 (let (($x164111 (<= (+ ?x1136 ?x1124 S_5 ?x1125 ?x1140) (- 5.0))))
 (let ((?x19638 (+ ?x484 S_0 L_1)))
 (let (($x162809 (<= (- 5.0) ?x19638)))
 (let (($x164949 (not $x162809)))
 (let (($x6410 (<= (+ A_3 (* (- 1.0) S_5) (* (- 1.0) L_3)) (- 5.0))))
 (let (($x1019 (<= (+ A_4 (* (- 1.0) S_5) (* (- 1.0) L_3)) 0.0)))
 (let (($x91192 (<= (+ ?x480 A_1 ?x5875 (* (- (/ 1.0 2.0)) S_2) L_2 (* (- 1.0) L_0)) 0.0)))
 (let (($x3687 (<= (+ (* (/ 2.0 5.0) S_5) (* (- 1.0) S_3) (* (/ 3.0 5.0) S_0)) 0.0)))
 (let (($x9831 (<= (+ A_4 ?x468 ?x476 ?x484 S_5 L_3 S_0 L_1) 0.0)))
 (let ((?x10497 (* (- (/ 2.0 3.0)) A_5)))
 (let ((?x10203 (* (/ 2.0 3.0) A_4)))
 (let ((?x57129 (+ ?x10203 ?x10497 ?x476 (* (- (/ 2.0 3.0)) A_2) S_5 L_3 ?x4601 (* (/ 2.0 3.0) L_2))))
 (let ((?x9825 (* (- (/ 1.0 2.0)) S_0)))
 (let ((?x3764 (* (/ 1.0 2.0) S_1)))
 (let ((?x41282 (+ ?x476 A_2 L_3 ?x590 ?x3764 ?x9825)))
 (let (($x365753 (or $x76 (<= (+ ?x476 (* 2.0 S_1) (* (- 1.0) S_0) L_3) (- 5.0)) (<= ?x41282 (- 5.0)))))
 (let (($x184894 (or $x76 (<= (+ ?x4139 (* 4.0 S_2) (* (- 1.0) S_0) ?x4166) (- 15.0)))))
 (let (($x184893 (or $x66 (<= (+ ?x472 ?x480 A_1 S_5 L_3 ?x603 L_2) (- 5.0)) (<= (+ ?x4073 ?x480 ?x4425 ?x3996 S_0 L_2) (- 5.0)))))
 (let (($x154242 (or $x66 (<= (+ A_4 ?x468 ?x480 A_1 ?x603 S_5 ?x503 L_2) 0.0) (<= (+ A_4 ?x468 ?x480 S_5 (* (- (/ 2.0 3.0)) S_4) ?x4601 L_2) 0.0))))
 (let (($x5904 (<= (+ A_2 (* (- 1.0) S_3) ?x590) 0.0)))
 (let (($x366011 (or $x76 $x5904 (<= (+ A_4 ?x468 ?x476 S_5 (* (- 1.0) S_3) S_1 L_3) 0.0))))
 (let ((?x4052 (* 2.0 S_0)))
 (let ((?x525 (* (- 1.0) S_2)))
 (let (($x56 (= L_1 L_0)))
 (let (($x368947 (or $x56 (<= (+ A_4 ?x468 ?x480 ?x484 S_5 L_2 ?x525 ?x4052 L_1) 0.0))))
 (let ((?x6922 (* (/ 1.0 2.0) L_2)))
 (let ((?x9060 (* (- (/ 1.0 2.0)) A_2)))
 (let ((?x9582 (* (- (/ 1.0 2.0)) A_5)))
 (let ((?x10246 (* (/ 1.0 2.0) A_4)))
 (let (($x6764 (<= (+ A_1 ?x525 ?x603) 0.0)))
 (let ((?x25420 (+ ?x476 A_2 L_3 ?x590)))
 (let (($x164105 (<= ?x25420 (- 10.0))))
 (let (($x174445 (or $x76 $x164105 (<= (+ ?x476 A_1 L_3 ?x603) (- 15.0)) (<= (+ ?x476 L_3 S_0) (- 20.0)))))
 (let (($x167992 (<= (+ ?x17883 ?x5891 (* (- 4.0) A_3) ?x6282 S_0 (* 4.0 L_3)) (- 5.0))))
 (let ((?x17820 (+ A_4 ?x468 ?x4027 A_2 S_5 ?x590 ?x3996)))
 (let (($x165653 (<= ?x17820 (- 5.0))))
 (let (($x368115 (or $x76 $x165653 $x167992 (<= (+ ?x4067 ?x4068 ?x4139 A_1 ?x603 ?x4425 ?x4166) (- 5.0)))))
 (let (($x14642 (<= (+ A_4 ?x468 ?x484 S_5 (* (- 3.0) S_4) (* 3.0 S_2) L_1) 0.0)))
 (let (($x2553 (<= (+ A_3 (* (- 1.0) L_3) ?x503) 0.0)))
 (let (($x168492 (<= (+ (* (- (/ 1.0 4.0)) S_5) (* (/ 1.0 4.0) S_0)) (- 5.0))))
 (let ((?x577 (* (- 1.0) L_3)))
 (let ((?x788 (+ L_2 ?x577)))
 (let (($x164386 (<= 0.0 ?x788)))
 (let (($x142031 (or $x5904 (<= (+ ?x476 S_5 L_3 (* (- 1.0) S_3) S_0) 0.0) (<= (+ ?x476 ?x1110 S_5 L_3 (* (- 2.0) S_3) ?x1111) 0.0))))
 (let ((?x1138 (* (- 1.0) S_0)))
 (let ((?x1118 (* (- 2.0) L_2)))
 (let ((?x1115 (* 2.0 A_2)))
 (let (($x84577 (<= (+ ?x476 ?x1115 A_1 L_3 ?x503 ?x1118 ?x1138 ?x603) 0.0)))
 (let ((?x3998 (* (- (/ 1.0 2.0)) L_1)))
 (let ((?x4024 (* (/ 3.0 2.0) L_3)))
 (let ((?x4032 (* (/ 1.0 2.0) A_1)))
 (let (($x45800 (<= (+ ?x472 ?x4016 ?x4032 S_5 ?x4024 ?x3998) 0.0)))
 (let (($x177416 (<= (+ ?x480 (* (/ 2.0 3.0) A_1) (* (- (/ 2.0 3.0)) L_1) (* (/ 1.0 3.0) S_4) L_2) (- 5.0))))
 (let (($x107849 (<= (+ A_4 ?x468 (* (- (/ 3.0 2.0)) A_3) ?x4032 S_5 ?x3998 ?x4024) 0.0)))
 (let ((?x4175 (* (- 2.0) S_0)))
 (let ((?x1132 (* (- 3.0) L_2)))
 (let ((?x492 (* (- 1.0) S_5)))
 (let ((?x1129 (* 3.0 A_2)))
 (let (($x103987 (<= (+ ?x4027 ?x1129 ?x1110 ?x492 ?x1132 ?x4175 ?x1111 ?x3996) 0.0)))
 (let (($x173673 (<= (+ ?x4027 ?x1115 A_1 ?x3996 ?x1118 ?x1138 ?x603) (- 5.0))))
 (let (($x78648 (<= (+ ?x4139 ?x1124 S_5 ?x1138 ?x1125 ?x4166) 0.0)))
 (let (($x84586 (<= (+ ?x4027 ?x1115 ?x1110 ?x3996 ?x1118 ?x525 ?x1138 ?x1111) 0.0)))
 (let (($x8247 (<= (+ ?x476 A_2 A_1 (* (- 1.0) A_0) L_3 ?x590 ?x603 L_0) 0.0)))
 (let (($x18362 (<= (+ ?x4067 ?x4068 ?x4139 A_1 ?x4425 ?x603 ?x4166) 0.0)))
 (let (($x17805 (<= (+ A_4 ?x468 ?x4027 A_2 A_1 S_5 ?x590 ?x525 ?x603 ?x3996) 0.0)))
 (let ((?x4053 (* (- 4.0) L_3)))
 (let ((?x1503 (* 4.0 L_1)))
 (let ((?x4025 (* (- 2.0) S_5)))
 (let ((?x1405 (* (- 4.0) A_1)))
 (let ((?x4051 (* 4.0 A_3)))
 (let ((?x7528 (* (/ 1.0 3.0) L_2)))
 (let ((?x7563 (* (/ 1.0 3.0) S_5)))
 (let ((?x7553 (* (- (/ 1.0 3.0)) A_2)))
 (let (($x18339 (<= (+ ?x476 A_1 S_1 ?x1138 ?x603 L_3) 0.0)))
 (let (($x369274 (or $x56 (<= (+ ?x484 (* (/ 1.0 5.0) S_5) (* (/ 4.0 5.0) S_0) L_1) (- 5.0)))))
 (let ((?x10535 (* (/ 4.0 3.0) L_1)))
 (let ((?x10735 (* (- (/ 1.0 3.0)) A_5)))
 (let ((?x10734 (* (/ 1.0 3.0) A_4)))
 (let (($x189103 (or $x56 (<= (+ ?x10734 ?x10735 (* (- (/ 4.0 3.0)) A_1) ?x7563 S_0 ?x10535) (- 5.0)))))
 (let ((?x1117 (* 2.0 L_1)))
 (let ((?x1116 (* (- 2.0) A_1)))
 (let (($x366527 (or $x56 (<= (+ A_4 ?x468 ?x480 ?x1116 S_5 L_2 ?x4052 ?x1117) (- 5.0)))))
 (let (($x372773 (or $x66 (<= (+ ?x10246 ?x9582 ?x9060 ?x5875 (* (- 1.0) S_3) S_1 ?x6922) 0.0))))
 (let (($x177467 (or $x76 (<= (+ ?x4139 ?x1129 S_5 (* (- 1.0) S_3) ?x1132 ?x4166) 0.0))))
 (let (($x182633 (or $x56 $x1019 (<= (+ ?x484 (* (- (/ 1.0 2.0)) S_5) (* (/ 3.0 2.0) S_2) L_1) (- 5.0)) (<= (+ A_3 ?x484 ?x492 ?x577 S_2 L_1) (- 5.0)))))
 (let (($x178062 (<= (+ ?x10246 ?x9582 (* (- (/ 3.0 2.0)) A_2) ?x5875 S_1 (* (/ 3.0 2.0) L_2)) (- 5.0))))
 (let ((?x514 (* (- 1.0) S_3)))
 (let ((?x13183 (* (/ 1.0 3.0) S_4)))
 (let ((?x10731 (* (- (/ 2.0 3.0)) L_1)))
 (let ((?x10730 (* (/ 2.0 3.0) A_1)))
 (let (($x165372 (or $x5904 (<= (+ (* (/ 1.0 2.0) S_4) ?x514 ?x9833) 0.0) (<= (+ ?x10730 ?x10731 ?x13183 ?x514) 0.0))))
 (let (($x171607 (<= (+ ?x480 (* (/ 3.0 4.0) A_1) (* (- (/ 3.0 4.0)) L_1) (* (/ 1.0 4.0) S_5) L_2) (- 5.0))))
 (let (($x182277 (or $x66 $x171607 (<= (+ ?x480 (* (/ 2.0 5.0) S_5) (* (/ 3.0 5.0) S_0) L_2) (- 5.0)))))
 (let ((?x27505 (* 5.0 L_3)))
 (let ((?x1434 (* (- 5.0) L_2)))
 (let ((?x536 (* (- 1.0) S_1)))
 (let ((?x1608 (* 5.0 A_2)))
 (let ((?x26458 (* (- 5.0) A_3)))
 (let ((?x7564 (* (- (/ 2.0 3.0)) L_2)))
 (let ((?x7562 (* (/ 2.0 3.0) A_2)))
 (let (($x367701 (or $x76 (<= (+ ?x476 ?x7562 A_1 ?x7563 ?x7564 ?x525 ?x603 L_3) 0.0) (<= (+ ?x4027 ?x1110 S_5 ?x525 ?x1111 ?x3996) 0.0))))
 (let ((?x5667 (* (/ 1.0 2.0) S_4)))
 (let ((?x9078 (* (- (/ 1.0 2.0)) L_2)))
 (let ((?x9071 (* (/ 1.0 2.0) A_2)))
 (let ((?x4010 (* (- (/ 3.0 2.0)) L_1)))
 (let ((?x4022 (* (/ 3.0 2.0) A_1)))
 (let ((?x4020 (* (- (/ 3.0 2.0)) A_3)))
 (let (($x195760 (or $x76 (<= (+ ?x4020 ?x4022 S_4 ?x525 ?x4010 ?x4024) 0.0) (<= (+ ?x476 ?x9071 A_1 ?x9078 ?x5667 ?x525 ?x603 L_3) 0.0))))
 (let (($x10739 (<= (+ ?x10734 ?x10735 (* (- (/ 1.0 3.0)) A_1) ?x7563 ?x525 S_0 (* (/ 1.0 3.0) L_1)) 0.0)))
 (let ((?x815 (* (- 4.0) L_2)))
 (let ((?x4048 (* 4.0 L_3)))
 (let ((?x1497 (* 4.0 A_2)))
 (let ((?x4046 (* (- 4.0) A_3)))
 (let (($x113481 (<= (+ A_4 ?x468 ?x480 S_5 (* (- 2.0) S_4) (* 2.0 S_2) L_2) 0.0)))
 (let (($x367476 (or $x66 (<= (+ ?x480 A_1 ?x603 L_2) (- 10.0)) (<= (+ ?x480 S_0 L_2) (- 15.0)))))
 (let ((?x24629 (+ ?x4027 A_2 ?x3996 S_4 ?x590)))
 (let (($x166887 (<= ?x24629 (- 10.0))))
 (let (($x166453 (<= (+ ?x476 (* (/ 1.0 3.0) A_1) (* (- (/ 1.0 3.0)) L_1) (* (/ 2.0 3.0) S_4) L_3) (- 5.0))))
 (let (($x181438 (or $x76 $x166453 $x166887 (<= (+ ?x476 (* (/ 3.0 4.0) S_4) (* (/ 1.0 4.0) S_0) L_3) (- 5.0)))))
 (let (($x181437 (or $x76 $x166887 (<= (+ ?x476 (* (/ 2.0 3.0) S_4) (* (/ 1.0 3.0) S_1) L_3) (- 5.0)))))
 (let (($x181113 (or $x66 (<= (+ ?x480 (* (/ 1.0 4.0) S_5) (* (/ 3.0 4.0) S_1) L_2) (- 5.0)))))
 (let ((?x4060 (* (/ 5.0 2.0) L_3)))
 (let ((?x4059 (* (- (/ 5.0 2.0)) L_1)))
 (let ((?x4058 (* (/ 5.0 2.0) A_1)))
 (let ((?x4056 (* (- (/ 5.0 2.0)) A_3)))
 (let (($x4062 (<= (+ ?x4056 ?x4058 S_4 ?x1138 ?x4059 ?x4060) 0.0)))
 (let (($x73583 (<= (+ (* (- (/ 2.0 3.0)) A_1) (* (/ 2.0 3.0) L_1) (* (- (/ 1.0 3.0)) S_5) S_2) 0.0)))
 (let ((?x6274 (+ A_3 ?x484 ?x492 ?x577 S_2 L_1)))
 (let (($x64959 (<= ?x6274 0.0)))
 (let (($x17124 (<= (+ (* (- (/ 1.0 2.0)) A_1) (* (/ 1.0 2.0) L_1) (* (- (/ 1.0 2.0)) S_4) S_2) 0.0)))
 (let (($x68262 (<= (+ A_4 ?x468 A_2 ?x484 S_5 ?x590 (* (- 2.0) S_4) S_1 L_1) 0.0)))
 (let (($x14714 (<= (+ A_4 ?x468 ?x484 S_5 (* (- (/ 3.0 2.0)) S_4) (* (/ 3.0 2.0) S_1) L_1) 0.0)))
 (let (($x18207 (<= (+ ?x4020 ?x4022 S_2 ?x1138 ?x4010 ?x4024) 0.0)))
 (let (($x8096 (<= (+ ?x476 A_2 A_1 L_3 ?x590 ?x536 ?x603) 0.0)))
 (let ((?x1428 (* (- 5.0) L_1)))
 (let ((?x4047 (* (- 2.0) S_1)))
 (let ((?x1477 (* 5.0 A_1)))
 (let (($x29827 (<= (+ (* 2.0 A_3) ?x1109 ?x492 (* (- 2.0) L_3) S_2 ?x1112) 0.0)))
 (let (($x365689 (or $x56 $x1019 (<= (+ A_3 ?x484 ?x4025 (* 2.0 S_3) L_1 ?x577) 0.0))))
 (let (($x372939 (or $x76 $x5904 (<= (+ ?x4067 ?x4068 ?x4027 ?x4425 ?x514 S_0 ?x3996) 0.0) (<= (+ ?x4067 ?x4068 ?x4027 ?x1110 ?x1111 ?x4425 (* (- 2.0) S_3) ?x3996) 0.0))))
 (let ((?x1126 (* 3.0 L_2)))
 (let ((?x4235 (* (- 3.0) L_3)))
 (let ((?x1123 (* (- 3.0) A_2)))
 (let ((?x4074 (* 3.0 A_3)))
 (let ((?x1131 (* 3.0 L_1)))
 (let ((?x3058 (* 2.0 S_1)))
 (let ((?x1130 (* (- 3.0) A_1)))
 (let ((?x3879 (* (- 2.0) L_3)))
 (let ((?x3987 (* 2.0 A_3)))
 (let (($x366133 (or $x56 $x1019 (<= (+ ?x3987 ?x480 ?x1116 ?x492 ?x3879 L_2 ?x3058 ?x1117) 0.0))))
 (let (($x116885 (or $x1019 (<= (+ ?x492 (* 2.0 S_2) ?x536) 0.0) (<= (+ ?x3987 ?x4025 ?x3879 S_2 ?x536) 0.0))))
 (let (($x167307 (not $x164386)))
 (let (($x366683 (or $x56 $x1019 (<= (+ A_3 ?x9060 ?x484 (* (- (/ 1.0 2.0)) S_5) ?x9078 S_1 L_1) 0.0) $x167307)))
 (let (($x116517 (or $x56 $x5904 (<= (+ A_4 ?x468 ?x476 ?x484 S_5 L_3 ?x514 ?x3058 L_1) 0.0))))
 (let ((?x1763 (* 6.0 L_2)))
 (let ((?x1762 (* (- 6.0) L_1)))
 (let ((?x1761 (* 6.0 A_1)))
 (let ((?x1760 (* (- 6.0) A_2)))
 (let (($x11974 (<= (+ A_4 ?x468 ?x484 S_5 (* (- 3.0) S_3) (* 3.0 S_1) L_1) 0.0)))
 (let ((?x1479 (* 5.0 L_2)))
 (let ((?x1165 (* (- 1.0) A_0)))
 (let ((?x1508 (* (- 5.0) A_2)))
 (let ((?x10014 (* (/ 2.0 3.0) L_1)))
 (let ((?x7588 (* (/ 2.0 3.0) S_5)))
 (let ((?x10401 (* (- (/ 2.0 3.0)) A_1)))
 (let (($x167311 (<= (+ ?x476 ?x7562 ?x7563 ?x7564 L_3) (- 5.0))))
 (let (($x179284 (or $x76 (<= (+ ?x476 (* (/ 3.0 5.0) S_5) (* (/ 2.0 5.0) S_0) L_3) (- 5.0)) $x167311 (<= (+ ?x476 ?x4032 ?x3998 ?x5875 L_3) (- 5.0)))))
 (let (($x1609 (<= (+ ?x1136 (* 4.0 A_1) S_5 ?x525 (* (- 4.0) L_1) ?x1140) 0.0)))
 (let (($x188189 (or $x66 $x1019 (<= (+ ?x4051 ?x1136 ?x492 ?x4053 S_0 ?x1140) 0.0) (<= (+ ?x4074 ?x1123 A_1 ?x492 ?x4235 ?x603 ?x1126) 0.0))))
 (let (($x121856 (or $x1019 (<= (+ ?x1165 (* (- 3.0) S_5) (* 4.0 S_3) L_0) 0.0))))
 (let (($x116829 (or $x66 (<= (+ A_4 ?x468 ?x476 ?x480 S_5 L_3 S_1 L_2) 0.0))))
 (let (($x33620 (<= (+ ?x476 A_1 L_3 S_4 ?x514 ?x603) 0.0)))
 (let (($x112768 (or $x5904 (<= (+ ?x476 L_3 S_4 (* (- (/ 1.0 2.0)) S_3) ?x9833) 0.0) $x33620)))
 (let (($x21520 (<= (+ ?x7562 ?x7563 ?x7564 ?x503) 0.0)))
 (let (($x9143 (<= (+ ?x9071 (* (- (/ 1.0 2.0)) S_5) ?x9078) (- 5.0))))
 (let ((?x1103 (+ ?x480 A_1 ?x603 L_2)))
 (let (($x396 (<= ?x1103 (- 5.0))))
 (let (($x6954 (<= (+ ?x472 A_2 S_5 L_3 ?x503 ?x590) 0.0)))
 (let (($x102960 (or $x2553 $x6954 (<= (+ ?x472 S_5 L_3 (* (- (/ 1.0 3.0)) S_4) (* (/ 1.0 3.0) S_0)) 0.0) (<= (+ ?x4073 A_1 ?x4425 ?x3996 ?x503 ?x603) 0.0))))
 (let (($x7207 (<= (+ A_2 ?x503 ?x590) (- 5.0))))
 (let (($x178127 (or $x2553 $x7207 (<= (+ ?x4032 ?x3998 (* (- (/ 1.0 2.0)) S_4)) (- 5.0)) (<= (+ (* (- (/ 1.0 3.0)) S_4) (* (/ 1.0 3.0) S_0)) (- 5.0)))))
 (let (($x111021 (or $x2553 (<= (+ (* (/ 3.0 5.0) S_5) ?x503 (* (/ 2.0 5.0) S_0)) 0.0) $x21520 (<= (+ ?x4032 ?x3998 ?x5875 ?x503) 0.0))))
 (let ((?x75160 (* 6.0 L_3)))
 (let ((?x81814 (* (- 6.0) L_2)))
 (let ((?x51420 (* 6.0 A_2)))
 (let ((?x45093 (* (- 6.0) A_3)))
 (let (($x9084 (<= (+ (* (/ 3.0 2.0) A_2) (* (- (/ 1.0 2.0)) S_5) (* (- (/ 3.0 2.0)) L_2) ?x536) 0.0)))
 (let (($x8848 (<= (+ ?x3987 ?x4025 ?x3879 S_1 ?x1138) 0.0)))
 (let (($x177893 (or $x1019 $x8848 $x9084 (<= (+ (* (- (/ 2.0 3.0)) S_5) (* (/ 5.0 3.0) S_1) ?x1138) 0.0))))
 (let (($x94838 (or $x1019 (<= (+ ?x4074 (* (- 3.0) S_5) ?x4235 S_2 ?x1138) 0.0) (<= (+ ?x492 (* (/ 5.0 3.0) S_2) (* (- (/ 2.0 3.0)) S_0)) 0.0))))
 (let (($x177735 (or $x1019 $x8848 (<= (+ A_2 ?x492 ?x590 S_1 ?x1138) 0.0) (not (<= 0.0 (+ ?x1109 (* 3.0 S_1) ?x1138 ?x1112))))))
 (let (($x177531 (or $x1019 $x6410 $x9143 (<= (+ (* (- (/ 1.0 3.0)) S_5) (* (/ 1.0 3.0) S_1)) (- 5.0)))))
 (let (($x73222 (<= (+ (* (- (/ 1.0 3.0)) A_1) (* (/ 1.0 3.0) L_1) (* (- (/ 2.0 3.0)) S_5) S_3) 0.0)))
 (let ((?x3989 (* (- (/ 1.0 2.0)) L_3)))
 (let ((?x4005 (* (/ 1.0 2.0) L_1)))
 (let ((?x3914 (* (- (/ 1.0 2.0)) A_1)))
 (let ((?x4019 (* (/ 1.0 2.0) A_3)))
 (let (($x18347 (<= (+ ?x4019 ?x3914 ?x503 S_2 ?x4005 ?x3989) 0.0)))
 (let (($x176075 (or $x66 (<= (+ ?x480 (* (/ 2.0 3.0) S_3) (* (/ 1.0 3.0) S_0) L_2) (- 5.0)) (<= (+ ?x1109 A_1 S_3 ?x603 ?x1112) (- 10.0)))))
 (let (($x190201 (or $x5904 (<= (+ ?x4073 ?x1110 ?x4425 ?x3996 (* (- 2.0) S_3) ?x1111) 0.0) (<= (+ ?x472 S_5 L_3 (* (- (/ 1.0 2.0)) S_3) ?x9833) 0.0))))
 (let (($x192044 (or $x76 (<= ?x43131 0.0) (<= (+ ?x472 ?x476 A_2 A_1 S_5 ?x3996 ?x590 ?x525 ?x603) 0.0))))
 (let (($x93615 (or $x1019 (<= (+ ?x3987 ?x1165 ?x4025 ?x3879 S_2 L_0) 0.0) (<= (+ ?x1165 ?x492 (* 2.0 S_2) L_0) 0.0))))
 (let (($x197336 (or $x1019 (<= (+ ?x9071 ?x1165 (* (- (/ 1.0 2.0)) S_5) ?x9078 S_1 L_0) 0.0) (<= (+ A_3 ?x1165 ?x492 ?x577 S_1 L_0) 0.0) (<= (+ ?x1165 (* (- (/ 1.0 3.0)) S_5) (* (/ 4.0 3.0) S_1) L_0) 0.0))))
 (let (($x197271 (or $x56 (<= (+ ?x4019 (* (- (/ 3.0 2.0)) A_1) ?x3989 S_0 (* (/ 3.0 2.0) L_1)) (- 5.0)))))
 (let (($x34623 (<= (+ A_1 ?x514 ?x603) (- 5.0))))
 (let ((?x1139 (* (- 4.0) L_1)))
 (let ((?x4033 (* 2.0 S_4)))
 (let ((?x1137 (* 4.0 A_1)))
 (let (($x191125 (or $x76 $x5904 (<= (+ ?x4139 ?x1124 ?x4425 (* (- 2.0) S_3) ?x1125 ?x4166) 0.0))))
 (let (($x2543 (<= (+ A_3 A_2 ?x484 ?x492 ?x577 L_1 ?x590) 0.0)))
 (let (($x78644 (<= (+ ?x26458 ?x1477 (* (- 2.0) A_0) ?x4425 ?x1428 ?x27505 (* 2.0 L_0)) 0.0)))
 (let (($x4085 (<= (+ ?x4046 ?x1137 (* (- 2.0) A_0) ?x4033 ?x1139 ?x4048 (* 2.0 L_0)) 0.0)))
 (let (($x193176 (or $x56 $x5904 (<= (+ A_3 ?x484 (* (- 2.0) S_3) ?x3058 L_1 ?x577) 0.0))))
 (let (($x164653 (<= (+ ?x476 (* (- (/ 1.0 2.0)) A_0) (* (/ 3.0 2.0) S_2) L_3 (* (/ 1.0 2.0) L_0)) (- 5.0))))
 (let (($x18326 (<= (+ ?x476 A_1 (* (- 2.0) A_0) ?x3058 ?x603 L_3 (* 2.0 L_0)) 0.0)))
 (let (($x157112 (or $x66 (<= (+ A_3 ?x480 A_1 ?x577 ?x514 ?x603 L_2) 0.0) (<= (+ ?x3987 ?x1109 ?x3879 ?x514 S_0 ?x1112) 0.0))))
 (let (($x192088 (or $x76 (<= (+ ?x4139 ?x1124 (* 2.0 S_3) ?x4047 ?x1125 ?x4166) 0.0) $x8096)))
 (let (($x193049 (or $x2553 (<= (+ ?x472 S_5 L_3 (* (- (/ 1.0 2.0)) S_4) ?x3764) 0.0) $x6954)))
 (let ((?x4042 (* (/ 3.0 2.0) L_1)))
 (let ((?x4041 (* (- (/ 3.0 2.0)) A_1)))
 (let (($x40977 (<= (+ (* (/ 3.0 2.0) A_3) ?x4041 (* (- (/ 3.0 2.0)) L_3) ?x503 S_0 ?x4042) 0.0)))
 (let (($x66186 (or $x2553 (<= (+ ?x1165 (* (- (/ 1.0 2.0)) S_4) (* (/ 3.0 2.0) S_1) L_0) 0.0) (<= (+ A_2 ?x1165 ?x503 ?x590 S_1 L_0) 0.0))))
 (let (($x69369 (or $x2553 (<= (+ ?x503 ?x3058 ?x1138) 0.0) (<= (+ A_2 ?x503 ?x590 ?x3764 ?x9825) 0.0))))
 (let (($x372453 (or $x66 (<= (+ ?x4074 ?x1123 ?x4235 ?x503 S_0 ?x1126) 0.0) (<= 0.0 (+ ?x484 ?x13183 ?x4601 L_1)))))
 (let (($x8231 (<= (+ A_3 ?x480 ?x484 ?x577 L_2 S_0 L_1) 0.0)))
 (let (($x165056 (<= (+ ?x476 A_2 ?x1165 L_3 ?x590 S_1 L_0) (- 5.0))))
 (let (($x155978 (<= (+ ?x476 (* (- 2.0) A_0) (* 3.0 S_1) L_3 (* 2.0 L_0)) (- 5.0))))
 (let ((?x4083 (* 2.0 L_0)))
 (let ((?x3821 (* 2.0 S_3)))
 (let ((?x4082 (* (- 2.0) A_0)))
 (let (($x168053 (or $x76 (<= (+ ?x476 L_3 (* (/ 3.0 2.0) S_2) (* (- (/ 1.0 2.0)) S_1)) (- 5.0)))))
 (let (($x364734 (or $x66 (<= (+ A_3 ?x1109 A_1 ?x577 ?x603 ?x1112) (- 5.0)) (<= (+ ?x3987 ?x1123 ?x3879 S_0 ?x1126) (- 5.0)))))
 (let (($x29944 (<= (+ ?x4027 ?x1115 ?x10401 (* (- (/ 4.0 3.0)) L_1) (* (/ 2.0 3.0) S_4) ?x3996) 0.0)))
 (let (($x4668 (not $x66)))
 (let (($x193984 (or $x76 (<= (+ ?x4027 ?x1110 ?x4082 (* 2.0 S_2) ?x1111 ?x3996 ?x4083) 0.0))))
 (let (($x25325 (or $x76 $x6764 (<= (+ A_4 ?x468 ?x476 S_5 ?x525 S_0 L_3) 0.0))))
 (let (($x18572 (or $x2553 (<= (+ ?x1165 (* (- 2.0) S_4) (* 3.0 S_2) L_0) 0.0))))
 (let (($x2733 (<= (+ A_4 ?x468 ?x476 ?x1109 A_1 S_5 L_3 S_2 ?x603 ?x1112) 0.0)))
 (let (($x1157 (= (+ ?x476 ?x1115 ?x484 L_3 L_1 ?x1118) 0.0)))
 (let (($x193152 (or $x66 $x1157 (not (<= 0.0 (+ A_3 ?x1109 A_1 ?x577 ?x603 ?x1112))))))
 (let (($x166203 (<= 0.0 (+ ?x476 ?x1115 ?x1116 L_3 S_1 ?x1117 ?x1118))))
 (let (($x128 (>= S_1 S_0)))
 (let (($x131 (>= S_2 S_1)))
 (let (($x134 (>= S_3 S_2)))
 (let (($x137 (>= S_4 S_3)))
 (let (($x140 (>= S_5 S_4)))
 (let (($x142 (>= A_1 A_0)))
 (let (($x143 (>= A_2 A_1)))
 (let (($x144 (>= A_3 A_2)))
 (let (($x145 (>= A_4 A_3)))
 (let (($x146 (>= A_5 A_4)))
 (and $x146 $x145 $x144 $x143 $x142 $x140 $x137 $x134 $x131 $x128 (or (not (<= 0.0 (+ ?x603 L_0))) $x56) (or $x66 $x396) (or $x56 $x66 $x76 $x1157) (or (not $x366) $x66) (or $x66 (<= (+ ?x480 S_2 L_2) (- 5.0))) (or $x66 (<= 0.0 (+ ?x476 ?x1115 ?x484 L_1 ?x590)) (not $x76)) (or $x66 (<= (+ ?x1123 ?x1110 S_4 ?x1111 ?x1126) (- 5.0))) (or $x66 (<= (+ ?x1136 ?x1137 ?x1165 S_4 ?x1139 ?x1140 L_0) 0.0)) (or $x66 (<= (+ ?x1508 ?x1477 S_4 ?x1138 ?x1428 ?x1479) 0.0)) (or $x56 (<= (+ A_2 ?x1116 S_0 ?x1117 ?x590) (- 5.0))) (or $x56 (<= (+ ?x1115 ?x1116 ?x514 S_0 ?x1117 ?x1118) 0.0)) (or $x56 (<= (+ ?x484 S_1 L_1) (- 5.0))) (or $x56 (<= (+ A_2 ?x484 ?x514 S_1 L_1 ?x590) 0.0)) (or $x66 (<= (+ ?x480 A_1 ?x1165 S_1 ?x603 L_2 L_0) 0.0)) (<= (+ ?x476 L_3 S_3) 0.0) (or $x66 (<= (+ ?x1109 ?x1110 ?x1165 S_2 ?x1111 ?x1112 L_0) 0.0)) (or (not $x166203) $x56 $x2553) (or $x56 (<= (+ ?x1115 ?x1116 ?x503 S_1 ?x1117 ?x1118) 0.0) $x166203) (or $x56 (<= (+ A_2 ?x484 ?x503 S_2 L_1 ?x590) 0.0) $x2553) (or $x66 (<= (+ ?x1123 ?x1124 S_2 ?x1138 ?x1125 ?x1126) 0.0)) (or $x56 $x1019 (<= (+ ?x1115 ?x1116 ?x492 S_2 ?x1117 ?x1118) 0.0) $x2543) (or $x66 (<= (+ ?x1109 ?x1110 S_2 ?x536 ?x1111 ?x1112) 0.0)) (or $x56 $x1019 (<= (+ A_2 ?x484 ?x492 S_3 L_1 ?x590) 0.0)) (or $x56 $x1019 $x2543 (<= (+ ?x1129 ?x1130 ?x492 S_1 ?x1131 ?x1132) 0.0)) (or $x56 (<= (+ A_2 ?x484 ?x525 S_0 L_1 ?x590) 0.0)) $x193152 (or $x76 $x167307) (or $x76 (<= (+ ?x476 S_3 L_3) (- 5.0))) (or $x76 (<= (+ ?x476 A_1 S_3 ?x525 ?x603 L_3) 0.0)) (or $x2553 (<= (+ ?x503 S_2) (- 5.0))) (<= (+ ?x480 S_2 L_2) 0.0) (or $x66 (<= (+ ?x1109 A_1 S_3 ?x603 ?x1112) (- 5.0))) (or $x56 (<= (+ ?x484 ?x6381 ?x9833 L_1) (- 5.0))) (or $x66 (<= (+ ?x1123 ?x1124 ?x1165 S_3 ?x1125 ?x1126 L_0) 0.0)) (or $x66 $x2733) (or $x5904 (<= (+ ?x1165 ?x514 ?x3058 L_0) 0.0)) (or $x5904 (<= (+ ?x514 S_1) (- 5.0))) (or $x56 (<= (+ A_4 ?x468 ?x484 S_5 ?x503 S_0 L_1) 0.0)) (or $x56 (<= (+ A_3 ?x484 ?x577 ?x503 S_1 L_1) 0.0)) $x18572 (or $x56 $x2553 (<= (+ ?x484 ?x503 (* 2.0 S_2) L_1) (- 5.0))) (<= (+ ?x472 L_3 S_4) 0.0) (or $x66 (<= (+ ?x472 ?x480 A_1 S_5 L_3 ?x603 L_2) 0.0)) (or $x66 (<= (+ ?x1109 ?x1110 S_5 ?x503 ?x1111 ?x1112) 0.0)) (or $x6764 (<= (+ ?x525 S_0) (- 5.0))) $x25325 (or $x56 $x8231) (or $x2553 (<= (+ (* (- 3.0) S_4) (* 4.0 S_2) ?x1138) 0.0)) (or $x56 (<= (+ ?x1129 ?x1130 ?x503 S_0 ?x1131 ?x1132) 0.0) $x2553) (or $x76 $x4668 (<= (+ ?x4027 A_2 ?x3996 S_4 ?x603) (- 5.0))) (or $x56 (<= ?x19638 (- 10.0))) (or $x5904 (<= (+ S_4 (* (- 3.0) S_3) ?x3058) 0.0)) (or $x5904 (<= (+ ?x476 L_3 S_4 ?x514 S_1) 0.0)) $x193984 (or $x2553 (<= (+ ?x7563 ?x503 (* (/ 2.0 3.0) S_2)) 0.0)) (or $x2553 (<= (+ ?x5875 ?x503 ?x3764) 0.0) $x21520) (or $x6764 (<= (+ (* (/ 1.0 4.0) S_4) ?x525 (* (/ 3.0 4.0) S_0)) 0.0)) (or $x6764 (<= (+ ?x476 S_5 L_3 (* (- 2.0) S_2) ?x4052) 0.0)) (or $x76 $x4668 $x29944) $x364734 (or $x76 (<= (+ ?x476 ?x484 L_3 L_1 (* 2.0 S_2)) (- 5.0))) $x168053 (or $x2553 (<= (+ (* (- 2.0) S_4) (* 3.0 S_2) ?x536) 0.0)) (or $x76 (<= ?x24629 (- 5.0))) (or $x66 (<= (+ ?x1123 ?x1124 S_4 ?x525 ?x1125 ?x1126) 0.0)) (or $x76 $x5904 $x33620) (or $x56 $x76 (<= 0.0 (+ A_3 ?x1109 A_1 ?x577 ?x603 ?x1112))) (or $x76 (<= (+ ?x4139 ?x1124 ?x4082 ?x3821 ?x1125 ?x4166 ?x4083) 0.0) $x8247) (or $x1019 $x6410 (<= (+ (* (- (/ 1.0 2.0)) S_5) ?x6381) (- 5.0))) (or (<= (+ (* (/ 1.0 3.0) S_3) ?x525 ?x4601) 0.0) $x6764) (or $x66 (<= (+ ?x1136 ?x1137 S_3 ?x1138 ?x1139 ?x1140) 0.0)) (or $x66 (<= (+ ?x1109 ?x1110 S_3 ?x525 ?x1111 ?x1112) 0.0)) (or $x66 (<= (+ ?x1109 ?x1110 S_1 ?x1138 ?x1111 ?x1112) 0.0)) (or $x76 (<= (+ ?x4046 ?x1497 ?x4048 S_3 ?x1138 ?x815) 0.0)) (or $x66 $x6764 (<= (+ A_3 ?x480 ?x577 ?x525 L_2 S_0) 0.0)) (or $x66 (<= (+ ?x480 (* (/ 3.0 2.0) S_1) ?x9825 L_2) (- 5.0))) (or $x56 $x9831) (or $x1019 (<= (+ (* (- 3.0) S_5) (* 4.0 S_3) ?x536) 0.0)) (or $x1019 (<= (+ ?x9060 (* (- (/ 1.0 2.0)) S_5) ?x6922 S_3) 0.0)) (or $x66 (<= (+ A_3 ?x480 ?x577 ?x503 S_2 L_2) 0.0)) (or $x76 (<= (+ ?x4027 ?x1115 ?x3996 S_4 ?x514 ?x1118) 0.0)) (or $x6764 (<= (+ ?x472 S_5 L_3 ?x525 S_0) 0.0)) (or $x76 (<= (+ ?x476 ?x5667 ?x6381 L_3) (- 5.0))) (or $x1019 (<= (+ ?x492 S_3) (- 5.0))) (or $x76 (not (<= 0.0 (+ ?x480 ?x1165 ?x3058 L_2 L_0))) $x165056) (or $x66 (<= (+ ?x476 ?x480 A_1 L_3 S_4 ?x603 L_2) 0.0)) (or $x76 (<= (+ ?x476 A_2 ?x484 L_3 S_2 L_1 ?x590) 0.0)) (or $x76 (<= ?x37146 0.0)) (or $x76 $x155978 $x165056) (or $x76 (<= (+ ?x4027 ?x1115 ?x3996 S_3 ?x525 ?x1118) 0.0)) (or $x6764 (<= (+ ?x476 L_3 S_4 ?x525 S_0) 0.0)) (or $x66 $x8231 (<= (+ ?x3987 ?x1109 A_1 ?x3879 ?x503 ?x603 ?x1112) 0.0)) $x372453 (or $x66 (<= (+ ?x3987 ?x1109 ?x3879 ?x503 S_1 ?x1112) 0.0)) (or $x66 (<= (+ A_3 ?x1109 ?x577 S_1 ?x1112) (- 5.0))) (or $x5904 (<= (+ S_5 (* (- 4.0) S_3) (* 3.0 S_1)) 0.0)) (or $x66 (<= (+ A_3 ?x480 ?x577 ?x514 S_1 L_2) 0.0)) (or $x56 (<= (+ ?x3987 ?x1116 ?x3879 (* (- 2.0) S_3) ?x4052 ?x1117) 0.0)) (or $x3687 $x5904 (<= (+ ?x1124 ?x1125 S_5 (* (- 4.0) S_3)) 0.0)) (or $x66 (<= ?x2548 0.0)) (or (<= (+ (* (/ 1.0 5.0) S_5) ?x525 (* (/ 4.0 5.0) S_0)) 0.0) $x6764) (or $x76 (<= (+ ?x476 ?x5875 ?x3764 L_3) (- 5.0)) $x167311) (or $x76 $x4062 $x5904) (or $x76 $x4062 $x8247) (or $x76 (<= (+ ?x4027 ?x1115 ?x1165 ?x3996 S_2 ?x1118 L_0) 0.0)) (or $x76 (<= (+ ?x4139 ?x1129 ?x1165 ?x4166 S_3 ?x1132 L_0) 0.0)) (or $x66 (<= (+ ?x1123 ?x1124 S_3 ?x536 ?x1125 ?x1126) 0.0)) (or $x5904 (<= (+ ?x514 (* (/ 3.0 2.0) S_1) ?x9825) 0.0)) $x69369 $x66186 (or $x56 $x40977) (or $x2553 $x7207 (<= (+ (* (- (/ 1.0 2.0)) S_4) ?x3764) (- 5.0))) (or $x76 (<= (+ ?x476 S_2 L_3) (- 10.0))) (or $x1019 (<= (+ ?x4025 (* 3.0 S_3) ?x525) 0.0)) (or $x76 $x4668 (<= (+ ?x4027 ?x1115 ?x484 ?x603 S_3 ?x3996) 0.0)) (or $x66 $x1019 (<= (+ A_3 ?x480 ?x492 ?x577 S_3 L_2) 0.0)) (or $x76 (<= (+ ?x4046 ?x1497 ?x484 L_1 S_5 ?x815 ?x4048) 0.0)) (or $x5904 (<= (+ ?x472 S_5 L_3 ?x514 S_1) 0.0)) (or $x2553 (<= (+ ?x472 S_5 L_3 ?x503 S_2) 0.0)) $x193049 (or $x66 (<= (+ ?x1136 ?x1137 S_4 ?x536 ?x1139 ?x1140) 0.0)) $x192088 (or $x6764 (<= (+ ?x9060 ?x5667 ?x6922 ?x525 S_0) 0.0)) (or $x6764 (<= (+ ?x480 S_3 L_2 ?x525 S_0) 0.0)) (or $x76 (<= (+ ?x476 A_2 ?x1165 L_3 S_1 ?x590 L_0) 0.0)) (or $x76 (<= (+ ?x4027 ?x1115 ?x3996 S_2 ?x536 ?x1118) 0.0)) (or $x76 (<= (+ ?x4046 ?x1497 ?x1165 ?x4048 S_4 ?x815 L_0) 0.0)) $x157112 (or $x56 $x76 (<= (+ ?x4016 ?x3914 S_2 ?x4005 ?x3992) (- 5.0))) (or $x56 (<= (+ ?x4019 ?x3914 ?x3989 ?x525 S_0 ?x4005) 0.0)) (or $x76 $x8247 $x18326) (or $x76 $x164653) (or $x76 (<= (+ ?x4139 S_5 (* 2.0 S_2) ?x4166) (- 15.0))) $x193176 (or $x66 (<= (+ ?x480 S_1 L_2) (- 10.0))) (or $x76 $x4085 $x8247) (or $x76 $x8247 $x18362) (or $x76 $x8096 $x18362) (or $x76 $x8247 $x18207) (or $x76 (<= (+ ?x4027 ?x1110 S_3 ?x1138 ?x1111 ?x3996) 0.0) $x8247) (or $x76 (<= (+ ?x4027 ?x1110 (* 2.0 S_2) ?x4047 ?x1111 ?x3996) 0.0)) (or $x76 $x8247 $x78644) (or $x56 (<= (+ ?x472 ?x484 S_5 L_3 S_0 L_1) (- 5.0))) (or $x56 $x1019 $x2543 (<= (+ ?x1497 ?x1405 ?x492 S_0 ?x1503 ?x815) 0.0)) $x191125 (or $x76 (<= (+ ?x4046 ?x1137 ?x4033 ?x4047 ?x1139 ?x4048) 0.0) $x8096) (or $x76 (<= (+ ?x4027 ?x1115 ?x484 ?x3996 S_3 L_1 ?x1118) 0.0)) (or $x76 (<= (+ ?x4139 ?x1129 ?x4166 S_4 ?x525 ?x1132) 0.0)) (or $x76 (<= ?x25420 (- 5.0))) (or $x5904 $x34623 (<= (+ (* (- (/ 1.0 2.0)) S_3) ?x9833) (- 5.0))) $x197271 (or $x56 $x18347 $x164386) (or $x76 (<= (+ ?x4027 ?x1110 S_3 ?x1138 ?x1111 ?x3996) 0.0) $x84586) (or $x76 $x18207 $x173673) (or $x76 (<= (+ ?x4027 ?x1110 S_3 ?x1138 ?x1111 ?x3996) 0.0) $x173673) (or $x76 $x18207 $x84577) (or $x76 $x164105 (<= (+ ?x476 S_1 L_3) (- 15.0))) $x197336 $x93615 (or $x56 (<= (+ ?x484 (* (/ 1.0 3.0) S_3) ?x4601 L_1) (- 5.0))) (or $x56 (<= ?x19634 (- 5.0))) $x192044 $x190201 (or $x66 (<= (+ ?x480 ?x1165 ?x3058 L_2 L_0) (- 5.0))) (or $x66 (<= (+ ?x480 (* (/ 1.0 2.0) S_3) ?x3764 L_2) (- 5.0))) $x176075 (or $x56 $x1019 $x64959) (or $x56 $x2553 $x18347) (or $x76 (<= (+ ?x4016 ?x4032 ?x3992 ?x3998) (- 5.0))) (or $x76 $x5904 $x18339) (or $x56 (<= (+ ?x1405 S_4 (* 3.0 S_0) ?x1503) (- 20.0))) (or $x76 (<= ?x17820 0.0)) (or $x76 $x18362 $x165653) (or $x76 (<= (+ ?x26458 ?x1608 ?x1165 S_5 ?x1434 ?x27505 L_0) 0.0)) (or $x1019 $x73222) (or $x1019 (<= (+ (* (- 4.0) S_5) (* 5.0 S_3) ?x1138) 0.0)) (or $x66 (<= (+ ?x1109 ?x1110 S_4 ?x514 ?x1111 ?x1112) 0.0)) (or $x66 (<= (+ ?x1508 ?x1477 S_5 ?x536 ?x1428 ?x1479) 0.0)) (or $x76 (<= (+ ?x4139 ?x1129 ?x4166 S_3 ?x536 ?x1132) 0.0)) (or $x76 (<= ?x41282 0.0)) (or $x76 (<= (+ ?x4020 ?x4032 S_4 ?x3998 ?x4024) (- 5.0)) $x166887) $x177531 (or $x76 $x4062 $x84586) $x177735 $x94838 $x177893 (or $x76 (<= (+ ?x45093 ?x51420 S_5 ?x1138 ?x81814 ?x75160) 0.0)) $x111021 $x178127 $x102960 (or $x396 $x1019 $x6410 $x9143 $x168492) (or $x66 $x164111) (or $x76 (<= (+ ?x4027 ?x1110 S_3 ?x1138 ?x1111 ?x3996) 0.0) $x8096) (or $x76 $x21520 (<= (+ ?x476 A_1 S_5 ?x503 ?x603 L_3) 0.0)) $x112768 $x116829 (or $x5904 (<= (+ ?x476 S_5 L_3 (* (- 2.0) S_3) ?x3058) 0.0)) $x121856 $x188189 (or $x66 $x1609) (or $x76 $x8247 $x18339) (or $x76 $x18339 $x84577) (or $x76 $x18339 $x173673) (or $x76 $x4062 $x173673) (or $x366 (<= (+ A_4 ?x468 ?x1123 ?x1110 S_5 ?x1111 ?x1126) 0.0)) (or $x56 (<= (+ ?x480 ?x484 L_2 S_3 S_0 L_1) (- 5.0))) $x179284 (or $x76 $x167311 (<= (+ ?x4027 A_1 S_5 ?x603 ?x3996) (- 5.0))) (or $x56 $x5904 (<= (+ ?x10203 ?x10497 ?x10401 ?x7588 ?x514 S_0 ?x10014) 0.0)) (or $x56 (<= (+ ?x9060 ?x484 ?x5667 ?x6922 S_0 L_1) (- 5.0))) (or $x66 (<= (+ ?x1508 ?x1477 ?x1165 S_5 ?x1428 ?x1479 L_0) 0.0)) (or $x56 $x5904 $x11974) (or $x76 (<= (+ ?x4027 ?x1115 S_5 ?x503 ?x1118 ?x3996) 0.0)) (or $x66 (<= (+ ?x1123 ?x1124 S_5 ?x514 ?x1125 ?x1126) 0.0)) (or $x66 (<= (+ ?x1760 ?x1761 S_5 ?x1138 ?x1762 ?x1763) 0.0)) $x116517 $x366683 $x116885 $x366133 (or $x56 $x1019 (<= (+ ?x4074 ?x1130 ?x4025 ?x3058 ?x1131 ?x4235) 0.0)) (or $x76 (<= (+ ?x4139 ?x1129 ?x484 ?x4166 S_4 L_1 ?x1132) 0.0)) (or $x66 $x1019 (<= (+ ?x4074 ?x1123 ?x492 ?x4235 S_1 ?x1126) 0.0)) $x372939 (or $x76 $x5904 $x45800) (or $x56 (<= (+ ?x4016 ?x484 ?x5875 ?x3992 S_0 L_1) (- 5.0))) (or $x76 (<= (+ ?x4139 ?x1115 S_5 ?x1118 ?x4166) (- 5.0))) (or $x76 $x18362 $x84577) (or $x76 $x18362 $x173673) (or $x76 $x18362 $x84586) (or $x76 $x18339 $x84586) $x365689 (or $x66 $x1019 (<= (+ ?x480 ?x492 ?x3821 L_2) (- 5.0))) (or $x76 (<= (+ ?x4027 ?x1110 S_3 ?x1138 ?x1111 ?x3996) 0.0) $x84577) (or $x66 (<= (+ ?x480 ?x13183 (* (/ 2.0 3.0) S_1) L_2) (- 5.0))) (or $x66 $x1019 $x29827) (or $x76 $x8096 (<= (+ ?x26458 ?x1477 ?x4425 ?x4047 ?x1428 ?x27505) 0.0)) (or $x76 $x171292 (<= (+ ?x4073 ?x476 ?x4425 ?x4166 S_1) (- 5.0))) (or $x76 (<= (+ ?x4046 ?x1497 S_5 ?x525 ?x815 ?x4048) 0.0)) (or $x76 $x17806 $x18362) (or $x76 $x4062 $x8096) (or $x76 $x8096 $x78648) (or $x76 $x8096 $x45800) (or $x76 $x5904 $x18207) (or $x76 $x1019 $x18207 $x103987) (or $x76 $x5904 $x78648) (or $x76 $x8247 $x78648) (or $x76 $x78648 $x84586) (or $x76 $x8096 $x18207) (or $x56 $x2553 $x14714 $x68262) (or $x76 (<= (+ ?x4139 ?x1129 ?x4166 S_2 ?x1138 ?x1132) 0.0)) (or $x2553 $x17124) (or $x1019 $x64959 $x73583) (or $x76 $x1019 $x4062 $x103987) (or $x76 (<= (+ ?x26458 ?x1608 ?x27505 S_4 ?x1138 ?x1434) 0.0)) $x181113 (or $x56 $x1019 (<= (+ ?x484 ?x4025 (* 3.0 S_3) L_1) (- 5.0))) (or $x76 $x45800 $x171292) $x181437 $x181438 (or $x76 $x1019 (<= (+ ?x4027 ?x1110 S_3 ?x1138 ?x1111 ?x3996) 0.0) $x103987) $x367476 (or $x76 $x5904 $x107849) (or $x66 $x2553 $x113481) (or $x76 (<= (+ ?x4046 ?x1497 ?x4048 S_4 ?x536 ?x815) 0.0)) (or $x56 $x10739) $x195760 (or $x76 $x78648 $x84577) $x367701 (or $x76 (<= (+ ?x26458 ?x1608 S_5 ?x536 ?x1434 ?x27505) 0.0)) $x182277 $x165372 (or $x76 $x17806 (<= (+ ?x4067 ?x4068 ?x4027 ?x4425 ?x503 S_1 ?x3996) 0.0)) (or $x66 (<= (+ A_4 ?x468 ?x480 S_5 ?x503 S_1 L_2) 0.0)) (or $x66 $x178062) $x182633 $x177467 $x372773 (or $x76 $x6954 $x45800) $x366527 $x189103 (or $x6764 (<= (+ ?x7553 ?x7563 ?x7528 ?x525 S_0) 0.0)) $x369274 (or $x76 $x1019 $x18339 $x103987) (or $x56 (<= (+ ?x7553 ?x484 ?x7563 ?x7528 S_0 L_1) (- 5.0))) (or $x56 $x1019 (<= (+ ?x4051 ?x1405 ?x4025 ?x4052 ?x1503 ?x4053) 0.0)) (or $x17805 $x18362 $x164386) (or $x76 $x8247 $x45800) (or $x76 $x45800 $x173673) (or $x76 $x45800 $x84586) (or $x76 $x165653 (<= (+ ?x4067 ?x4068 ?x4139 ?x4425 S_1 ?x4166) (- 5.0))) (or $x76 $x1019 $x78648 $x103987) (or $x76 $x78648 $x173673) (or $x76 $x1019 $x103987 $x107849) (or $x66 (<= (+ ?x480 ?x5667 ?x9833 L_2) (- 5.0)) $x177416) (or $x66 (<= (+ ?x476 ?x480 L_3 S_4 S_1 L_2) (- 5.0))) (or $x76 $x45800 $x84577) $x142031 (or (<= (+ A_4 ?x468 ?x4027 S_5 S_2 ?x3996) (- 5.0)) $x164386) (or $x1019 $x6410 $x162809 $x168492 (not (<= (+ ?x9060 ?x6922 ?x9833) (- 5.0)))) (or $x56 $x2553 $x14642) $x368115 $x174445 (or $x66 $x6764 (<= (+ ?x10246 ?x9582 ?x9060 ?x5875 ?x525 S_0 ?x6922) 0.0)) $x368947 $x366011 $x154242 $x184893 $x184894 $x365753 (or $x66 (<= ?x57129 0.0) $x65634) (or $x76 $x9831 $x17806 $x72864) (or $x76 (<= (+ A_4 ?x468 ?x476 S_5 ?x503 S_2 L_3) 0.0)) (or $x66 (<= (+ ?x472 ?x480 S_5 L_3 S_1 L_2) (- 5.0))) (or $x66 $x3687 $x106952) (or $x1019 $x6410 (not $x91192) $x164949 $x175727) (or $x1019 $x6410 $x164949 (<= (+ A_2 ?x484) 5.0) $x175727) (or $x1019 $x6410 $x164949 (not $x164111) $x175727) (or $x76 (<= (+ ?x472 ?x476 S_5 ?x3996 S_2) (- 5.0))) $x373826 (or $x66 (<= (+ ?x4016 ?x480 ?x5875 ?x3992 S_1 L_2) (- 5.0))) (or $x66 $x65634 (not $x176575)) (or $x66 $x172677 (<= (+ A_4 ?x468 ?x1109 S_5 S_0 ?x1112) (- 5.0))) (or $x66 $x65634 (<= ?x147393 0.0)) $x371474 $x374130 $x376481 (or $x76 $x170185 (<= ?x43131 (- 5.0)) $x171292) $x376110 (or $x66 (<= ?x2548 (- 10.0)) $x182669) $x39 (<= (+ ?x1165 S_0 L_0) 0.0) (<= (+ ?x484 S_1 L_1) 0.0) (<= (+ ?x468 S_5 L_3) 0.0))))))))))))))))))))))))))))))))))))))))))))))))))))))))))))))))))))))))))))))))))))))))))))))))))))))))))))))))))))))))))))))))))))))))))))))))))))))))))))))))))))))))))))))))))))))))))))))))))))))))))))))))))))))))))))))))))))))))))))))))))))))))))))))))))))))))))))))))))))))))))))))))))))))))))))))))))))))))
(check-sat)
